Instance name:    bar-n100-4
Authors:          PDPTW Solver
Date:             2025-11-20
Reference:        LNS with SA/RTR
Solution
Route 1 : 27 77 25 23 75 73
Route 2 : 18 5 55 68 40 34 90 84
Route 3 : 20 70 4 11 61 54
Route 4 : 19 17 67 69 32 82 24 74
Route 5 : 36 86 50 100 37 30 87 80
Route 6 : 6 56 10 8 13 60 58 63 15 65
Route 7 : 29 21 71 79 45 44 94 95
Route 8 : 16 66 28 78 22 14 64 72
Route 9 : 47 97 9 59 41 33 83 91
Route 10 : 46 96 1 49 51 39 89 99
Route 11 : 38 88 3 31 81 53 43 35 85 93
Route 12 : 26 76 2 52 42 92 12 62
Route 13 : 7 48 98 57
